p cnf 40 31
-14 -4 0
-20 9 0
-16 10 0
-16 2 0
6 3 0
-18 -18 0
15 -8 0
8 7 0
20 -4 0
-10 -16 0
-11 11 0
19 19 0
-17 -15 0
3 -20 0
-5 14 0
4 10 0
1 -15 0
13 -1 0
5 -18 0
1 4 0
16 15 0
2 17 0
12 -3 0
-14 10 0
-13 2 0
-8 14 0
16 3 0
-14 14 0
-9 17 0
-2 -14 0
16 -2 0
